NAME          
ROWS
 N  OBJ
 L  c1
 L  c2
 L  c3
COLUMNS
    MARKER    'MARKER'                 'INTORG'
    x[1]      c1        194
    x[1]      c2        759
    x[1]      c3        462
    x[1]      OBJ       -452
    x[2]      c1        542
    x[2]      c2        875
    x[2]      c3        16
    x[2]      OBJ       -342
    x[3]      c1        15
    x[3]      c2        810
    x[3]      c3        621
    x[3]      OBJ       -10
    x[4]      c1        786
    x[4]      c2        813
    x[4]      c3        123
    x[4]      OBJ       -572
    x[5]      c1        305
    x[5]      c2        532
    x[5]      c3        603
    x[5]      OBJ       -959
    x[6]      c1        686
    x[6]      c2        586
    x[6]      c3        962
    x[6]      OBJ       -520
    x[7]      c1        194
    x[7]      c2        614
    x[7]      c3        961
    x[7]      OBJ       -473
    x[8]      c1        67
    x[8]      c2        698
    x[8]      c3        5
    x[8]      OBJ       -944
    x[9]      c1        757
    x[9]      c2        951
    x[9]      c3        317
    x[9]      OBJ       -743
    x[10]     c1        436
    x[10]     c2        402
    x[10]     c3        860
    x[10]     OBJ       -824
    x[11]     c1        867
    x[11]     c2        769
    x[11]     c3        126
    x[11]     OBJ       -590
    x[12]     c1        847
    x[12]     c2        737
    x[12]     c3        945
    x[12]     OBJ       -346
    x[13]     c1        820
    x[13]     c2        148
    x[13]     c3        362
    x[13]     OBJ       -471
    x[14]     c1        582
    x[14]     c2        586
    x[14]     c3        689
    x[14]     OBJ       -615
    x[15]     c1        785
    x[15]     c2        83
    x[15]     c3        137
    x[15]     OBJ       -759
    x[16]     c1        71
    x[16]     c2        448
    x[16]     c3        852
    x[16]     OBJ       -217
    x[17]     c1        193
    x[17]     c2        666
    x[17]     c3        893
    x[17]     OBJ       -91
    x[18]     c1        970
    x[18]     c2        16
    x[18]     c3        257
    x[18]     OBJ       -732
    x[19]     c1        456
    x[19]     c2        733
    x[19]     c3        628
    x[19]     OBJ       -751
    x[20]     c1        395
    x[20]     c2        825
    x[20]     c3        663
    x[20]     OBJ       -809
    x[21]     c1        846
    x[21]     c2        931
    x[21]     c3        256
    x[21]     OBJ       -664
    x[22]     c1        216
    x[22]     c2        286
    x[22]     c3        413
    x[22]     OBJ       -29
    x[23]     c1        479
    x[23]     c2        368
    x[23]     c3        560
    x[23]     OBJ       -350
    x[24]     c1        854
    x[24]     c2        105
    x[24]     c3        453
    x[24]     OBJ       -850
    x[25]     c1        411
    x[25]     c2        576
    x[25]     c3        717
    x[25]     OBJ       -228
    x[26]     c1        7
    x[26]     c2        510
    x[26]     c3        17
    x[26]     OBJ       -408
    x[27]     c1        23
    x[27]     c2        35
    x[27]     c3        481
    x[27]     OBJ       -933
    x[28]     c1        558
    x[28]     c2        490
    x[28]     c3        691
    x[28]     OBJ       -601
    x[29]     c1        778
    x[29]     c2        715
    x[29]     c3        373
    x[29]     OBJ       -339
    x[30]     c1        575
    x[30]     c2        324
    x[30]     c3        577
    x[30]     OBJ       -457
    x[31]     c1        918
    x[31]     c2        544
    x[31]     c3        596
    x[31]     OBJ       -820
    x[32]     c1        408
    x[32]     c2        561
    x[32]     c3        692
    x[32]     OBJ       -462
    x[33]     c1        27
    x[33]     c2        560
    x[33]     c3        407
    x[33]     OBJ       -419
    x[34]     c1        809
    x[34]     c2        254
    x[34]     c3        477
    x[34]     OBJ       -710
    x[35]     c1        991
    x[35]     c2        312
    x[35]     c3        631
    x[35]     OBJ       -151
    x[36]     c1        92
    x[36]     c2        628
    x[36]     c3        509
    x[36]     OBJ       -850
    x[37]     c1        591
    x[37]     c2        288
    x[37]     c3        614
    x[37]     OBJ       -406
    x[38]     c1        244
    x[38]     c2        140
    x[38]     c3        997
    x[38]     OBJ       -783
    x[39]     c1        465
    x[39]     c2        276
    x[39]     c3        980
    x[39]     OBJ       -738
    x[40]     c1        649
    x[40]     c2        308
    x[40]     c3        13
    x[40]     OBJ       -365
    x[41]     c1        766
    x[41]     c2        876
    x[41]     c3        637
    x[41]     OBJ       -532
    x[42]     c1        552
    x[42]     c2        468
    x[42]     c3        449
    x[42]     OBJ       -523
    x[43]     c1        186
    x[43]     c2        139
    x[43]     c3        992
    x[43]     OBJ       -100
    x[44]     c1        732
    x[44]     c2        626
    x[44]     c3        960
    x[44]     OBJ       -665
    x[45]     c1        942
    x[45]     c2        253
    x[45]     c3        917
    x[45]     OBJ       -900
RHS
    rhs       c1        11544
    rhs       c2        11312
    rhs       c3        12446
RANGES
BOUNDS
 BV bounds    x[1]
 BV bounds    x[2]
 BV bounds    x[3]
 BV bounds    x[4]
 BV bounds    x[5]
 BV bounds    x[6]
 BV bounds    x[7]
 BV bounds    x[8]
 BV bounds    x[9]
 BV bounds    x[10]
 BV bounds    x[11]
 BV bounds    x[12]
 BV bounds    x[13]
 BV bounds    x[14]
 BV bounds    x[15]
 BV bounds    x[16]
 BV bounds    x[17]
 BV bounds    x[18]
 BV bounds    x[19]
 BV bounds    x[20]
 BV bounds    x[21]
 BV bounds    x[22]
 BV bounds    x[23]
 BV bounds    x[24]
 BV bounds    x[25]
 BV bounds    x[26]
 BV bounds    x[27]
 BV bounds    x[28]
 BV bounds    x[29]
 BV bounds    x[30]
 BV bounds    x[31]
 BV bounds    x[32]
 BV bounds    x[33]
 BV bounds    x[34]
 BV bounds    x[35]
 BV bounds    x[36]
 BV bounds    x[37]
 BV bounds    x[38]
 BV bounds    x[39]
 BV bounds    x[40]
 BV bounds    x[41]
 BV bounds    x[42]
 BV bounds    x[43]
 BV bounds    x[44]
 BV bounds    x[45]
ENDATA
